0 0 0 0
0 1 0 0
0 2 0 0
0 3 1 3
0 4 0 2
0 5 2 3
0 6 1 2
0 7 0 13
0 8 0 8
0 9 2 15
0 10 1 13
0 11 0 12
0 12 0 8
0 13 1 3
0 14 0 12
0 15 1 15
0 16 0 23
0 17 0 23
0 18 0 22
0 19 0 28
0 20 0 31
0 21 0 29
0 22 0 27
0 23 0 28
0 24 0 26
0 25 2 23
0 26 0 32
0 27 0 29
0 28 1 37
0 29 2 32
0 30 0 37
0 31 0 42
